p cnf 13 24
-13 12 -9 0
13 10 7 0
13 -10 3 0
-13 10 3 0
-13 -10 1 0
-13 5 -3 0
13 -4 2 0
13 -3 2 0
11 8 -2 0
11 7 -4 0
11 7 -1 0
-11 6 3 0
-10 6 4 0
-10 5 4 0
9 8 7 0
-9 8 5 0
-9 -8 4 0
-9 7 1 0
8 6 -5 0
-7 6 4 0
7 6 3 0
-5 3 -1 0
-4 2 1 0
-3 -2 1 0
